lp/mknap00_0.lp
\ENCODING=ISO-8859-1
\Problem name: mknap00_0

Maximize
 obj1: 100 x0 + 220 x1 + 90 x2 + 400 x3 + 300 x4 + 400 x5 + 205 x6 + 120 x7
       + 160 x8 + 580 x9 + 400 x10 + 140 x11 + 100 x12 + 1300 x13 + 650 x14
Subject To
 c0: 8 x0 + 24 x1 + 13 x2 + 80 x3 + 70 x4 + 80 x5 + 45 x6 + 15 x7 + 28 x8
     + 90 x9 + 130 x10 + 32 x11 + 20 x12 + 120 x13 + 40 x14 <= 550
 c1: 8 x0 + 44 x1 + 13 x2 + 100 x3 + 100 x4 + 90 x5 + 75 x6 + 25 x7 + 28 x8
     + 120 x9 + 130 x10 + 32 x11 + 40 x12 + 160 x13 + 40 x14 <= 700
 c2: 3 x0 + 6 x1 + 4 x2 + 20 x3 + 20 x4 + 30 x5 + 8 x6 + 3 x7 + 12 x8 + 14 x9
     + 40 x10 + 6 x11 + 3 x12 + 20 x13 + 5 x14 <= 130
 c3: 5 x0 + 9 x1 + 6 x2 + 40 x3 + 30 x4 + 40 x5 + 16 x6 + 5 x7 + 18 x8 + 24 x9
     + 60 x10 + 16 x11 + 11 x12 + 30 x13 + 25 x14 <= 240
 c4: 5 x0 + 11 x1 + 7 x2 + 50 x3 + 40 x4 + 40 x5 + 19 x6 + 7 x7 + 18 x8 + 29 x9
     + 70 x10 + 21 x11 + 17 x12 + 30 x13 + 25 x14 <= 280
 c5: 5 x0 + 11 x1 + 7 x2 + 55 x3 + 40 x4 + 40 x5 + 21 x6 + 9 x7 + 18 x8 + 29 x9
     + 70 x10 + 21 x11 + 17 x12 + 35 x13 + 25 x14 <= 310
 c6: x2 + 10 x3 + 4 x4 + 10 x5 + 6 x7 + 6 x9 + 32 x10 + 3 x11 + 70 x13 + 10 x14
     <= 110
 c7: 3 x0 + 4 x1 + 5 x2 + 20 x3 + 14 x4 + 20 x5 + 6 x6 + 12 x7 + 10 x8 + 18 x9
     + 42 x10 + 9 x11 + 12 x12 + 100 x13 + 20 x14 <= 205
 c8: 3 x0 + 6 x1 + 9 x2 + 30 x3 + 29 x4 + 20 x5 + 12 x6 + 12 x7 + 10 x8 + 30 x9
     + 42 x10 + 18 x11 + 18 x12 + 110 x13 + 20 x14 <= 260
 c9: 3 x0 + 8 x1 + 9 x2 + 35 x3 + 29 x4 + 20 x5 + 16 x6 + 15 x7 + 10 x8 + 30 x9
     + 42 x10 + 20 x11 + 18 x12 + 120 x13 + 20 x14 <= 275
Bounds
 0 <= x0 <= 1
 0 <= x1 <= 1
 0 <= x2 <= 1
 0 <= x3 <= 1
 0 <= x4 <= 1
 0 <= x5 <= 1
 0 <= x6 <= 1
 0 <= x7 <= 1
 0 <= x8 <= 1
 0 <= x9 <= 1
 0 <= x10 <= 1
 0 <= x11 <= 1
 0 <= x12 <= 1
 0 <= x13 <= 1
 0 <= x14 <= 1
End
